
(set-logic ALL) 

(declare-datatype MyList ((Nil) (Cons (head Real) (tail MyList)) )) 
(declare-fun l0 () MyList) 
(declare-fun l1 () MyList) 
(declare-fun l2 () MyList) 
(declare-fun l3 () MyList) 
(declare-fun i0 () Real) 
(declare-fun i1 () Real) 
(assert (is-Cons Nil) )
(assert (or (is-Cons Nil) (= l1 Nil) (= l0 Nil) (= l1 Nil)) )
(assert (is-Nil Nil) )
(assert (= l1 l3) )
(assert (and (is-Nil l3) (is-Nil Nil)) )
(assert (not (= l3 l1)) )
(assert (is-Cons l3) )
(assert (or (is-Nil Nil) (= l2 l3) (= l0 Nil)) )
(check-sat)
